NAME : instances/clustered-mixed-tsp/instance-36.tsp
COMMENT : No Comment
TYPE : TSP
DIMENSION: 48
EDGE_WEIGHT_TYPE : EUC_2D
NODE_COORD_SECTION
1 1476 1735 
2 1374 1071 
3 44 1408 
4 1368 869 
5 1445 243 
6 1612 1887 
7 1181 931 
8 1663 62 
9 452 865 
10 1636 222 
11 1331 1438 
12 1735 137 
13 1469 1318 
14 1257 1069 
15 1797 804 
16 1191 553 
17 1262 63 
18 1868 441 
19 630 1520 
20 1931 707 
21 1241 999 
22 1241 1677 
23 1355 826 
24 1079 1973 
25 835 250 
26 1680 1144 
27 1123 216 
28 1594 1336 
29 565 1056 
30 1961 42 
31 556 1297 
32 1954 868 
33 1501 1924 
34 823 1476 
35 964 810 
36 1782 633 
37 25 1418 
38 1147 955 
39 1223 1869 
40 946 231 
41 1187 1266 
42 1472 677 
43 740 278 
44 1196 1419 
45 1100 1584 
46 258 1829 
47 245 850 
48 971 819 
EOF
